Route #1: 12 45 52 22 54 55 56 15 58
Route #2: 13 28 5 21 25 63
Route #3: 48 30 61 62 9
Route #4: 57 3 60 6 34 64 40
Route #5: 39 36 42 44 53
Route #6: 11 35 49 1 19 20
Route #7: 59 24 29 7 50 14 4 46
Route #8: 47 33 31 18 26 2 66
Route #9: 17 38 10 27 43 16 41
Route #10: 51 8 23 37 65 32
Cost 1132